w = 29;
n = 24;
measures = [|5, 17,
|4, 20,
|4, 18,
|3, 20,
|4, 15,
|3, 18,
|3, 15,
|5, 8,
|4, 9,
|3, 11,
|3, 10,
|4, 7,
|3, 9,
|3, 8,
|4, 6,
|3, 7,
|4, 5,
|5, 4,
|3, 6,
|4, 4,
|3, 5,
|3, 4,
|4, 3,
|3, 3,
|];
initial_x = [0, 5, 9, 13, 16, 20, 23, 0, 5, 9, 12, 15, 19, 22, 25, 0, 3, 7, 12, 15, 19, 22, 25, 0];
initial_y = [0, 0, 0, 0, 0, 0, 0, 20, 20, 20, 20, 20, 20, 20, 20, 31, 31, 31, 31, 31, 31, 31, 31, 38];